
Gurobi 9.1.2 (win64) logging started Mon Dec  6 13:25:55 2021

Gurobi Optimizer version 9.1.2 build v9.1.2rc0 (win64)
Thread count: 8 physical cores, 8 logical processors, using up to 8 threads
Optimize a model with 1 rows, 15 columns and 14 nonzeros
Model fingerprint: 0xecb5e39f
Variable types: 1 continuous, 14 integer (14 binary)
Coefficient statistics:
  Matrix range     [3e+00, 1e+01]
  Objective range  [1e+00, 1e+00]
  Bounds range     [5e+00, 5e+00]
  RHS range        [1e+01, 1e+01]
Found heuristic solution: objective -5.3842572

Explored 0 nodes (0 simplex iterations) in 14.05 seconds
Thread count was 1 (of 8 available processors)

Solution count 1: -5.38426 
No other solutions better than -5.38426

Optimal solution found (tolerance 1.00e-04)
Best objective -5.384257177130e+00, best bound -5.384257177130e+00, gap 0.0000%

User-callback calls 25, time in user-callback 17.75 sec
